p tw 130 141
1 2
2 43
3 14
4 5
5 6
6 7
7 8
8 9
9 10
10 11
11 12
12 110
13 15
14 25
15 16
16 17
17 18
18 19
18 3
19 20
20 21
21 22
22 23
23 24
24 26
25 36
26 27
27 28
28 29
29 30
30 3
31 32
32 33
33 34
34 35
36 37
37 38
37 41
38 39
39 40
40 41
40 44
41 42
42 34
43 54
44 45
45 46
46 47
47 48
48 49
49 50
50 51
51 52
51 55
52 53
53 34
54 65
55 56
56 57
57 58
58 59
59 60
60 61
61 62
62 63
63 64
64 66
65 76
66 67
67 68
68 69
69 70
70 71
70 99
71 72
72 73
73 74
73 99
74 75
75 77
76 87
77 78
78 79
79 80
80 81
81 82
82 83
83 84
84 85
84 94
85 86
86 88
87 98
87 3
88 89
89 90
90 91
91 92
92 93
93 94
94 95
95 96
96 97
97 67
98 109
99 100
100 101
101 102
102 103
103 104
104 105
105 106
106 107
107 108
108 110
109 120
109 36
110 111
111 112
112 113
113 114
113 13
114 115
115 116
116 117
116 13
117 118
118 119
119 121
120 31
121 122
122 123
123 124
124 125
125 126
126 127
127 128
127 9
128 129
129 130
130 4
